(set-logic QF_S)
(declare-fun _var_0xINPUT_110925_() String)
(declare-fun __woorpje_diseq_pref0_() String)
(declare-fun __woorpje_diseq_suf_l0_() String)
(declare-fun __woorpje_diseq_suf_r0_() String)
(assert (=(str.++  "eo874BBAOE" "")(str.++ _var_0xINPUT_110925_  "")) )
(check-sat)
